NAME: cuum20.tsp
TYPE: TSP
COMMENT: User-generated TSP file
DIMENSION: 20
EDGE_WEIGHT_TYPE: EUC_2D
NODE_COORD_SECTION
1 1.0 15.0
2 15.0 10.0
3 17.0 1.0
4 3.0 3.0
5 9.0 14.0
6 19.0 13.0
7 15.0 8.0
8 11.0 17.0
9 5.0 16.0
10 14.0 3.0
11 15.0 14.0
12 11.0 10.0
13 20.0 10.0
14 11.0 6.0
15 8.0 2.0
16 20.0 3.0
17 2.0 6.0
18 7.0 3.0
19 6.0 6.0
20 17.0 17.0
EOF





